# Solution for model r3_t9_m9_9
# Finished Task: 8 / 9
# Makespan: 522.0, Total Distance: 430.0, Total Time: 0.0305
# R O S F
0 0 7 0.0 0.0
1 1 9 0.0 0.0
2 2 3 0.0 0.0
3 2 8 380.0 416.0
4 1 10 347.0 380.0
5 -1 -1 -1.0 -1.0
6 1 -1 494.0 522.0
7 0 11 310.0 347.0
8 2 -1 458.0 483.0
9 1 4 180.0 200.0
10 1 6 427.0 458.0
11 0 -1 433.0 465.0
